NAME : amz0027.79719_76719.tour
COMMENT : Cost = 79719_76719
COMMENT : Found by LKH-AMZ [Keld Helsgaun] Sun May 11 12:11:50 2025
COMMENT : TW viol.: 0 #: 0
TYPE : TOUR
DIMENSION : 134
TOUR_SECTION
66
130
13
72
11
70
29
23
27
12
102
54
117
44
49
37
100
94
124
111
62
116
81
4
18
133
99
120
24
61
20
17
112
32
134
3
10
113
40
98
101
96
50
80
91
38
123
8
22
125
60
9
110
26
88
83
45
43
59
84
126
46
89
53
122
121
77
48
28
5
1
107
34
16
69
55
36
104
86
105
67
58
118
51
7
65
128
90
30
131
108
39
52
109
15
25
19
106
93
57
92
87
79
97
56
6
82
14
132
114
129
103
119
75
42
35
33
127
74
68
47
63
76
2
41
21
71
31
85
64
115
95
78
73
-1
EOF
